c File: data_files/evolved_graphs/g0150.col
c
c Auto generated graph
c
p edge 100 1916
e 1 16
e 1 18
e 1 19
e 1 20
e 1 21
e 1 22
e 1 34
e 1 35
e 1 36
e 1 39
e 1 40
e 1 41
e 1 42
e 1 43
e 1 44
e 1 45
e 1 46
e 1 47
e 1 48
e 1 49
e 1 50
e 1 51
e 1 52
e 1 53
e 1 54
e 1 55
e 1 56
e 1 57
e 1 58
e 1 59
e 1 60
e 1 61
e 1 62
e 1 63
e 1 64
e 1 65
e 1 66
e 1 70
e 1 73
e 1 86
e 1 87
e 1 88
e 1 91
e 1 92
e 1 100
e 2 13
e 2 16
e 2 17
e 2 18
e 2 19
e 2 20
e 2 21
e 2 22
e 2 35
e 2 36
e 2 37
e 2 39
e 2 40
e 2 41
e 2 42
e 2 43
e 2 44
e 2 45
e 2 46
e 2 47
e 2 48
e 2 49
e 2 50
e 2 51
e 2 52
e 2 53
e 2 54
e 2 55
e 2 56
e 2 57
e 2 58
e 2 60
e 2 61
e 2 62
e 2 63
e 2 64
e 2 65
e 2 66
e 2 83
e 2 84
e 2 85
e 2 86
e 2 87
e 2 88
e 2 90
e 2 91
e 2 92
e 2 94
e 2 95
e 2 96
e 2 97
e 2 100
e 3 13
e 3 14
e 3 15
e 3 16
e 3 17
e 3 18
e 3 19
e 3 20
e 3 21
e 3 34
e 3 35
e 3 36
e 3 37
e 3 38
e 3 39
e 3 40
e 3 41
e 3 42
e 3 43
e 3 44
e 3 45
e 3 46
e 3 47
e 3 48
e 3 50
e 3 51
e 3 52
e 3 53
e 3 54
e 3 55
e 3 56
e 3 57
e 3 58
e 3 59
e 3 60
e 3 61
e 3 62
e 3 63
e 3 64
e 3 65
e 3 66
e 3 79
e 3 80
e 3 81
e 3 82
e 3 83
e 3 84
e 3 85
e 3 86
e 3 87
e 3 88
e 3 89
e 3 92
e 3 94
e 3 95
e 3 96
e 3 98
e 3 99
e 4 14
e 4 15
e 4 17
e 4 18
e 4 19
e 4 20
e 4 21
e 4 22
e 4 34
e 4 35
e 4 36
e 4 37
e 4 38
e 4 39
e 4 40
e 4 41
e 4 42
e 4 43
e 4 44
e 4 45
e 4 46
e 4 48
e 4 49
e 4 50
e 4 51
e 4 52
e 4 53
e 4 54
e 4 55
e 4 56
e 4 57
e 4 58
e 4 59
e 4 61
e 4 62
e 4 63
e 4 64
e 4 66
e 4 79
e 4 80
e 4 81
e 4 82
e 4 83
e 4 84
e 4 86
e 4 87
e 4 88
e 4 89
e 4 90
e 4 91
e 4 92
e 4 93
e 4 94
e 4 95
e 4 96
e 4 97
e 4 99
e 4 100
e 5 13
e 5 14
e 5 15
e 5 16
e 5 17
e 5 18
e 5 19
e 5 20
e 5 21
e 5 22
e 5 28
e 5 34
e 5 35
e 5 36
e 5 37
e 5 38
e 5 40
e 5 41
e 5 42
e 5 43
e 5 44
e 5 45
e 5 46
e 5 47
e 5 48
e 5 49
e 5 50
e 5 51
e 5 52
e 5 53
e 5 54
e 5 55
e 5 56
e 5 57
e 5 58
e 5 59
e 5 60
e 5 61
e 5 62
e 5 63
e 5 64
e 5 65
e 5 66
e 5 80
e 5 82
e 5 83
e 5 85
e 5 86
e 5 87
e 5 88
e 5 89
e 5 90
e 5 91
e 5 92
e 5 93
e 5 94
e 5 95
e 5 96
e 5 97
e 5 98
e 6 13
e 6 14
e 6 15
e 6 17
e 6 18
e 6 19
e 6 20
e 6 21
e 6 22
e 6 34
e 6 35
e 6 36
e 6 37
e 6 38
e 6 39
e 6 40
e 6 41
e 6 42
e 6 44
e 6 45
e 6 46
e 6 47
e 6 48
e 6 49
e 6 50
e 6 51
e 6 52
e 6 53
e 6 55
e 6 63
e 6 64
e 6 65
e 6 66
e 6 67
e 6 73
e 6 75
e 6 78
e 6 80
e 6 81
e 6 82
e 6 83
e 6 84
e 6 85
e 6 86
e 6 87
e 6 89
e 6 90
e 6 91
e 6 92
e 6 93
e 6 94
e 6 95
e 6 96
e 7 13
e 7 14
e 7 15
e 7 16
e 7 17
e 7 18
e 7 19
e 7 20
e 7 21
e 7 22
e 7 34
e 7 36
e 7 37
e 7 38
e 7 39
e 7 40
e 7 41
e 7 42
e 7 43
e 7 44
e 7 45
e 7 46
e 7 47
e 7 48
e 7 49
e 7 50
e 7 51
e 7 52
e 7 53
e 7 54
e 7 55
e 7 63
e 7 64
e 7 65
e 7 66
e 7 67
e 7 79
e 7 81
e 7 82
e 7 83
e 7 84
e 7 86
e 7 87
e 7 88
e 7 91
e 7 92
e 7 93
e 7 94
e 7 95
e 7 96
e 7 99
e 7 100
e 8 13
e 8 14
e 8 15
e 8 16
e 8 17
e 8 18
e 8 19
e 8 20
e 8 22
e 8 27
e 8 35
e 8 36
e 8 37
e 8 38
e 8 39
e 8 40
e 8 41
e 8 42
e 8 43
e 8 45
e 8 46
e 8 47
e 8 48
e 8 50
e 8 51
e 8 52
e 8 53
e 8 54
e 8 55
e 8 63
e 8 65
e 8 66
e 8 67
e 8 72
e 8 80
e 8 81
e 8 83
e 8 84
e 8 86
e 8 87
e 8 88
e 8 89
e 8 90
e 8 91
e 8 92
e 8 93
e 8 95
e 8 96
e 8 99
e 9 13
e 9 14
e 9 15
e 9 16
e 9 17
e 9 18
e 9 19
e 9 20
e 9 21
e 9 22
e 9 35
e 9 36
e 9 37
e 9 38
e 9 39
e 9 40
e 9 41
e 9 42
e 9 43
e 9 44
e 9 45
e 9 46
e 9 47
e 9 48
e 9 49
e 9 50
e 9 51
e 9 52
e 9 53
e 9 55
e 9 63
e 9 64
e 9 65
e 9 66
e 9 67
e 9 79
e 9 80
e 9 81
e 9 82
e 9 83
e 9 84
e 9 85
e 9 86
e 9 87
e 9 88
e 9 89
e 9 91
e 9 92
e 9 94
e 9 95
e 9 96
e 9 99
e 9 100
e 10 13
e 10 14
e 10 15
e 10 16
e 10 17
e 10 18
e 10 19
e 10 20
e 10 21
e 10 22
e 10 36
e 10 37
e 10 39
e 10 40
e 10 41
e 10 42
e 10 45
e 10 46
e 10 47
e 10 48
e 10 49
e 10 50
e 10 51
e 10 52
e 10 53
e 10 54
e 10 55
e 10 56
e 10 57
e 10 58
e 10 59
e 10 60
e 10 61
e 10 62
e 10 63
e 10 64
e 10 65
e 10 66
e 10 67
e 10 75
e 10 79
e 10 80
e 10 82
e 10 83
e 10 84
e 10 85
e 10 86
e 10 87
e 10 88
e 10 90
e 10 91
e 10 92
e 10 93
e 10 94
e 10 95
e 10 96
e 10 97
e 10 100
e 11 13
e 11 14
e 11 15
e 11 16
e 11 17
e 11 18
e 11 19
e 11 20
e 11 21
e 11 22
e 11 35
e 11 36
e 11 37
e 11 39
e 11 40
e 11 41
e 11 42
e 11 43
e 11 44
e 11 45
e 11 46
e 11 47
e 11 48
e 11 49
e 11 50
e 11 51
e 11 52
e 11 53
e 11 54
e 11 55
e 11 56
e 11 57
e 11 58
e 11 59
e 11 60
e 11 61
e 11 62
e 11 63
e 11 64
e 11 65
e 11 66
e 11 79
e 11 80
e 11 82
e 11 83
e 11 84
e 11 85
e 11 86
e 11 87
e 11 88
e 11 89
e 11 90
e 11 91
e 11 92
e 11 93
e 11 94
e 11 96
e 11 98
e 11 99
e 12 13
e 12 14
e 12 15
e 12 16
e 12 17
e 12 18
e 12 19
e 12 20
e 12 21
e 12 22
e 12 35
e 12 36
e 12 37
e 12 38
e 12 40
e 12 41
e 12 42
e 12 43
e 12 44
e 12 45
e 12 46
e 12 47
e 12 49
e 12 50
e 12 51
e 12 52
e 12 53
e 12 54
e 12 55
e 12 56
e 12 57
e 12 58
e 12 59
e 12 60
e 12 61
e 12 62
e 12 63
e 12 64
e 12 65
e 12 66
e 12 76
e 12 78
e 12 97
e 12 99
e 13 23
e 13 24
e 13 25
e 13 26
e 13 28
e 13 29
e 13 30
e 13 31
e 13 38
e 13 39
e 13 41
e 13 43
e 13 44
e 13 45
e 13 46
e 13 47
e 13 48
e 13 49
e 13 50
e 13 51
e 13 52
e 13 53
e 13 54
e 13 55
e 13 56
e 13 57
e 13 58
e 13 59
e 13 60
e 13 61
e 13 63
e 13 64
e 13 65
e 13 66
e 13 67
e 13 98
e 14 23
e 14 24
e 14 25
e 14 26
e 14 27
e 14 28
e 14 29
e 14 30
e 14 31
e 14 33
e 14 34
e 14 35
e 14 36
e 14 37
e 14 38
e 14 39
e 14 40
e 14 41
e 14 42
e 14 43
e 14 44
e 14 45
e 14 46
e 14 47
e 14 48
e 14 49
e 14 50
e 14 51
e 14 52
e 14 53
e 14 54
e 14 55
e 14 56
e 14 57
e 14 58
e 14 59
e 14 60
e 14 61
e 14 62
e 14 63
e 14 64
e 14 65
e 14 66
e 14 67
e 14 97
e 14 100
e 15 23
e 15 24
e 15 25
e 15 26
e 15 27
e 15 28
e 15 29
e 15 30
e 15 31
e 15 34
e 15 35
e 15 36
e 15 37
e 15 38
e 15 39
e 15 40
e 15 41
e 15 42
e 15 43
e 15 44
e 15 46
e 15 47
e 15 48
e 15 49
e 15 50
e 15 51
e 15 52
e 15 53
e 15 54
e 15 56
e 15 57
e 15 58
e 15 59
e 15 60
e 15 61
e 15 62
e 15 63
e 15 64
e 15 65
e 15 66
e 15 67
e 15 76
e 15 77
e 15 98
e 16 23
e 16 24
e 16 25
e 16 26
e 16 27
e 16 28
e 16 29
e 16 30
e 16 31
e 16 35
e 16 36
e 16 37
e 16 38
e 16 39
e 16 40
e 16 41
e 16 42
e 16 43
e 16 44
e 16 45
e 16 46
e 16 47
e 16 48
e 16 49
e 16 50
e 16 51
e 16 52
e 16 53
e 16 54
e 16 55
e 16 56
e 16 57
e 16 58
e 16 59
e 16 60
e 16 61
e 16 62
e 16 63
e 16 64
e 16 65
e 16 66
e 16 67
e 16 98
e 17 24
e 17 25
e 17 26
e 17 28
e 17 30
e 17 34
e 17 35
e 17 36
e 17 37
e 17 38
e 17 39
e 17 40
e 17 41
e 17 42
e 17 43
e 17 44
e 17 45
e 17 46
e 17 47
e 17 48
e 17 49
e 17 50
e 17 52
e 17 53
e 17 54
e 17 55
e 17 56
e 17 57
e 17 58
e 17 59
e 17 60
e 17 61
e 17 62
e 17 63
e 17 64
e 17 65
e 17 66
e 17 67
e 17 70
e 17 76
e 18 34
e 18 35
e 18 36
e 18 37
e 18 38
e 18 40
e 18 42
e 18 43
e 18 44
e 18 45
e 18 46
e 18 47
e 18 48
e 18 49
e 18 50
e 18 51
e 18 52
e 18 53
e 18 54
e 18 55
e 18 56
e 18 57
e 18 58
e 18 59
e 18 60
e 18 62
e 18 63
e 18 64
e 18 65
e 18 66
e 18 67
e 18 68
e 18 74
e 18 83
e 18 97
e 19 34
e 19 35
e 19 36
e 19 37
e 19 38
e 19 40
e 19 41
e 19 42
e 19 43
e 19 44
e 19 45
e 19 46
e 19 47
e 19 48
e 19 49
e 19 50
e 19 51
e 19 52
e 19 53
e 19 54
e 19 55
e 19 56
e 19 57
e 19 58
e 19 59
e 19 60
e 19 61
e 19 62
e 19 63
e 19 64
e 19 65
e 19 66
e 19 69
e 19 76
e 19 84
e 19 94
e 20 38
e 20 40
e 20 41
e 20 44
e 20 45
e 20 46
e 20 47
e 20 48
e 20 49
e 20 50
e 20 51
e 20 52
e 20 53
e 20 54
e 20 56
e 20 57
e 20 58
e 20 59
e 20 60
e 20 61
e 20 62
e 20 63
e 20 64
e 20 65
e 20 67
e 20 72
e 20 85
e 21 38
e 21 39
e 21 40
e 21 41
e 21 42
e 21 43
e 21 44
e 21 45
e 21 46
e 21 47
e 21 48
e 21 49
e 21 50
e 21 51
e 21 52
e 21 53
e 21 54
e 21 55
e 21 56
e 21 57
e 21 59
e 21 60
e 21 61
e 21 62
e 21 63
e 21 64
e 21 65
e 21 66
e 21 67
e 21 68
e 22 39
e 22 40
e 22 42
e 22 43
e 22 44
e 22 45
e 22 46
e 22 47
e 22 48
e 22 49
e 22 50
e 22 51
e 22 52
e 22 53
e 22 54
e 22 55
e 22 56
e 22 57
e 22 58
e 22 59
e 22 60
e 22 61
e 22 62
e 22 63
e 22 64
e 22 65
e 22 66
e 22 67
e 22 68
e 22 73
e 22 90
e 23 34
e 23 35
e 23 36
e 23 37
e 23 38
e 23 39
e 23 40
e 23 41
e 23 42
e 23 43
e 23 44
e 23 45
e 23 47
e 23 48
e 23 49
e 23 50
e 23 51
e 23 52
e 23 53
e 23 54
e 23 55
e 23 56
e 23 57
e 23 58
e 23 59
e 23 60
e 23 61
e 23 62
e 23 63
e 23 64
e 23 65
e 23 66
e 23 67
e 24 34
e 24 35
e 24 36
e 24 37
e 24 38
e 24 39
e 24 40
e 24 41
e 24 42
e 24 43
e 24 44
e 24 45
e 24 46
e 24 47
e 24 48
e 24 49
e 24 50
e 24 51
e 24 52
e 24 53
e 24 54
e 24 55
e 24 56
e 24 57
e 24 59
e 24 60
e 24 61
e 24 62
e 24 63
e 24 64
e 24 65
e 24 66
e 24 67
e 24 69
e 25 34
e 25 35
e 25 36
e 25 37
e 25 38
e 25 39
e 25 40
e 25 42
e 25 43
e 25 44
e 26 34
e 26 35
e 26 36
e 26 37
e 26 38
e 26 39
e 26 40
e 26 42
e 26 43
e 26 44
e 26 67
e 26 75
e 26 78
e 27 34
e 27 35
e 27 36
e 27 37
e 27 39
e 27 40
e 27 41
e 27 42
e 27 43
e 27 44
e 27 67
e 28 34
e 28 35
e 28 36
e 28 37
e 28 39
e 28 40
e 28 41
e 28 43
e 28 44
e 28 77
e 29 34
e 29 35
e 29 36
e 29 37
e 29 38
e 29 39
e 29 40
e 29 41
e 29 42
e 29 43
e 29 44
e 29 67
e 29 77
e 30 34
e 30 35
e 30 36
e 30 37
e 30 38
e 30 39
e 30 40
e 30 41
e 30 42
e 30 43
e 30 44
e 30 45
e 30 46
e 30 47
e 30 48
e 30 49
e 30 50
e 30 53
e 30 54
e 30 55
e 30 60
e 30 79
e 30 95
e 31 34
e 31 35
e 31 36
e 31 37
e 31 38
e 31 39
e 31 40
e 31 41
e 31 42
e 31 43
e 31 44
e 31 45
e 31 46
e 31 47
e 31 48
e 31 49
e 31 50
e 31 51
e 31 59
e 31 94
e 31 95
e 32 34
e 32 35
e 32 36
e 32 37
e 32 38
e 32 39
e 32 40
e 32 47
e 32 53
e 32 54
e 32 55
e 32 58
e 32 69
e 32 80
e 32 95
e 32 96
e 33 34
e 33 35
e 33 36
e 33 37
e 33 38
e 33 39
e 33 40
e 33 43
e 33 44
e 33 45
e 33 46
e 33 47
e 33 48
e 33 49
e 33 50
e 33 51
e 33 55
e 33 60
e 33 61
e 33 62
e 33 63
e 33 64
e 33 65
e 33 66
e 33 67
e 33 69
e 33 70
e 33 71
e 33 72
e 33 73
e 33 76
e 33 77
e 33 78
e 33 79
e 33 80
e 33 81
e 33 84
e 33 85
e 33 86
e 33 95
e 33 97
e 34 35
e 34 36
e 34 37
e 34 38
e 34 39
e 34 40
e 34 41
e 34 42
e 34 43
e 34 95
e 35 42
e 35 43
e 35 95
e 36 42
e 36 43
e 36 95
e 37 42
e 37 43
e 37 95
e 38 42
e 38 43
e 38 44
e 38 45
e 38 46
e 38 47
e 38 48
e 38 49
e 38 54
e 38 59
e 38 60
e 38 61
e 38 62
e 38 63
e 38 64
e 38 65
e 38 66
e 38 67
e 39 42
e 39 43
e 39 54
e 39 55
e 39 56
e 39 57
e 39 58
e 39 59
e 39 60
e 39 61
e 39 62
e 39 63
e 39 64
e 39 65
e 39 66
e 39 67
e 39 76
e 40 42
e 40 43
e 40 54
e 40 55
e 40 56
e 40 57
e 40 58
e 40 59
e 40 60
e 40 61
e 40 62
e 40 63
e 40 64
e 40 65
e 40 66
e 40 67
e 40 69
e 40 78
e 41 42
e 41 43
e 41 54
e 41 55
e 41 56
e 41 58
e 41 59
e 41 60
e 41 61
e 41 62
e 41 63
e 41 64
e 41 65
e 41 66
e 41 67
e 42 54
e 42 55
e 42 56
e 42 57
e 42 59
e 42 60
e 42 61
e 42 62
e 42 63
e 42 64
e 42 65
e 42 66
e 42 67
e 42 76
e 43 54
e 43 55
e 43 56
e 43 57
e 43 59
e 43 60
e 43 61
e 43 62
e 43 63
e 43 64
e 43 65
e 43 66
e 43 67
e 43 70
e 44 73
e 44 78
e 45 69
e 45 72
e 46 75
e 46 78
e 47 71
e 47 74
e 48 70
e 48 76
e 49 68
e 49 71
e 50 71
e 50 75
e 50 78
e 51 78
e 52 69
e 52 72
e 53 72
e 53 75
e 54 70
e 54 72
e 54 76
e 54 79
e 54 80
e 54 81
e 54 82
e 54 83
e 54 84
e 54 85
e 55 80
e 55 81
e 55 82
e 55 83
e 55 84
e 55 85
e 55 86
e 55 87
e 55 90
e 55 91
e 55 93
e 55 95
e 55 96
e 56 72
e 56 80
e 56 81
e 56 82
e 56 83
e 56 84
e 56 85
e 56 86
e 56 87
e 56 89
e 56 94
e 57 71
e 57 76
e 57 80
e 57 81
e 57 82
e 57 84
e 57 85
e 57 86
e 57 87
e 57 89
e 58 78
e 58 79
e 58 80
e 58 81
e 58 82
e 58 83
e 58 84
e 58 85
e 58 86
e 58 87
e 58 88
e 58 89
e 58 90
e 58 91
e 58 92
e 58 93
e 58 94
e 58 95
e 58 96
e 59 78
e 59 79
e 59 80
e 59 81
e 59 82
e 59 83
e 59 84
e 59 85
e 59 86
e 59 87
e 59 88
e 59 89
e 59 90
e 59 91
e 59 92
e 59 93
e 59 95
e 59 96
e 60 81
e 60 82
e 60 83
e 60 84
e 60 85
e 60 86
e 60 87
e 60 88
e 60 89
e 60 90
e 60 91
e 60 92
e 60 93
e 60 94
e 60 95
e 60 96
e 61 81
e 61 82
e 61 83
e 61 84
e 61 85
e 61 86
e 61 87
e 61 88
e 61 89
e 61 90
e 61 91
e 61 92
e 61 93
e 61 94
e 61 95
e 61 96
e 62 81
e 62 82
e 62 83
e 62 84
e 62 85
e 62 87
e 62 88
e 62 89
e 62 90
e 62 91
e 62 92
e 62 93
e 62 94
e 62 95
e 62 96
e 63 88
e 63 89
e 63 90
e 63 91
e 63 92
e 63 93
e 63 94
e 63 96
e 64 88
e 64 89
e 64 90
e 64 91
e 64 92
e 64 93
e 64 94
e 64 95
e 64 96
e 65 88
e 65 90
e 65 91
e 65 92
e 65 93
e 65 94
e 65 95
e 65 96
e 66 79
e 66 88
e 66 90
e 66 91
e 66 92
e 66 93
e 66 94
e 66 95
e 66 96
e 67 83
e 67 84
e 67 85
e 67 86
e 67 87
e 67 88
e 67 89
e 67 90
e 67 91
e 67 92
e 67 93
e 67 94
e 67 95
e 67 96
e 68 82
e 68 83
e 68 84
e 68 85
e 68 86
e 68 87
e 68 88
e 68 89
e 68 90
e 68 91
e 68 92
e 68 93
e 68 94
e 68 95
e 69 82
e 69 83
e 69 84
e 69 85
e 69 86
e 69 87
e 69 88
e 69 89
e 69 90
e 69 91
e 69 92
e 69 93
e 69 94
e 69 95
e 69 96
e 69 97
e 69 98
e 69 99
e 69 100
e 70 82
e 70 83
e 70 84
e 70 85
e 70 86
e 70 87
e 70 88
e 70 90
e 70 91
e 70 92
e 70 93
e 70 94
e 70 95
e 70 96
e 70 97
e 70 98
e 71 82
e 71 83
e 71 84
e 71 85
e 71 86
e 71 87
e 71 88
e 71 89
e 71 90
e 71 91
e 71 92
e 71 93
e 71 94
e 71 95
e 71 96
e 71 97
e 71 98
e 71 99
e 71 100
e 72 79
e 72 80
e 72 81
e 72 83
e 72 84
e 72 85
e 72 86
e 72 87
e 72 88
e 72 89
e 72 90
e 72 91
e 72 92
e 72 93
e 72 94
e 72 95
e 72 96
e 72 97
e 72 98
e 72 99
e 72 100
e 73 78
e 73 82
e 73 83
e 73 84
e 73 85
e 73 86
e 73 87
e 73 88
e 73 89
e 73 90
e 73 91
e 73 92
e 73 93
e 73 94
e 73 95
e 73 96
e 73 98
e 73 99
e 73 100
e 74 80
e 74 82
e 74 83
e 74 84
e 74 85
e 74 86
e 74 87
e 74 88
e 74 89
e 74 90
e 74 91
e 74 92
e 74 93
e 74 94
e 74 95
e 74 96
e 74 97
e 74 98
e 74 99
e 74 100
e 75 80
e 75 82
e 75 83
e 75 84
e 75 85
e 75 86
e 75 87
e 75 88
e 75 89
e 75 90
e 75 91
e 75 92
e 75 93
e 75 94
e 75 95
e 75 97
e 75 98
e 75 99
e 75 100
e 76 82
e 76 83
e 76 84
e 76 85
e 76 86
e 76 87
e 76 88
e 76 89
e 76 90
e 76 91
e 76 92
e 76 93
e 76 94
e 76 95
e 76 96
e 76 97
e 76 98
e 76 99
e 76 100
e 77 82
e 77 83
e 77 84
e 77 85
e 77 86
e 77 87
e 77 88
e 77 89
e 77 90
e 77 91
e 77 92
e 77 93
e 77 94
e 77 95
e 77 96
e 77 97
e 77 98
e 77 99
e 77 100
e 78 81
e 78 82
e 78 83
e 78 84
e 78 85
e 78 86
e 78 87
e 78 88
e 78 89
e 78 90
e 78 91
e 78 92
e 78 93
e 78 94
e 78 95
e 78 96
e 78 97
e 78 98
e 78 99
e 78 100
e 79 82
e 79 83
e 79 84
e 79 85
e 79 86
e 79 87
e 79 88
e 79 89
e 79 90
e 79 91
e 79 92
e 79 93
e 79 94
e 79 95
e 79 96
e 79 97
e 79 98
e 79 99
e 79 100
e 80 82
e 80 83
e 80 84
e 80 85
e 80 86
e 80 87
e 80 88
e 80 89
e 80 90
e 80 91
e 80 92
e 80 93
e 80 94
e 80 95
e 80 96
e 80 97
e 80 98
e 80 99
e 80 100
e 81 82
e 81 83
e 81 84
e 81 85
e 81 86
e 81 87
e 81 88
e 81 89
e 81 90
e 81 91
e 81 92
e 81 93
e 81 94
e 81 95
e 81 96
e 81 97
e 81 98
e 81 99
e 81 100
e 82 92
e 82 93
e 82 94
e 82 95
e 82 96
e 82 97
e 82 98
e 82 99
e 82 100
e 83 92
e 83 93
e 83 94
e 83 95
e 83 96
e 83 97
e 83 98
e 83 99
e 83 100
e 84 92
e 84 93
e 84 94
e 84 95
e 84 96
e 84 97
e 84 98
e 84 99
e 84 100
e 85 92
e 85 93
e 85 95
e 85 96
e 85 97
e 85 98
e 85 99
e 85 100
e 86 94
e 86 96
e 86 97
e 86 98
e 86 99
e 86 100
e 87 92
e 87 93
e 87 94
e 87 95
e 87 96
e 87 97
e 87 98
e 87 99
e 87 100
e 88 92
e 88 93
e 88 94
e 88 96
e 88 97
e 88 98
e 88 99
e 88 100
e 89 92
e 89 93
e 89 94
e 89 95
e 89 96
e 89 97
e 89 98
e 89 99
e 90 92
e 90 93
e 90 94
e 90 95
e 90 96
e 90 98
e 90 99
e 90 100
e 91 92
e 91 93
e 91 94
e 91 95
e 91 96
e 91 97
e 91 98
e 91 99
e 91 100
e 92 96
e 92 97
e 92 98
e 92 99
e 92 100
e 93 96
e 93 97
e 93 98
e 93 99
e 93 100
e 94 96
e 94 97
e 94 98
e 94 99
e 94 100
e 95 96
e 95 97
e 95 98
e 95 99
e 95 100
e 96 97
e 96 98
e 96 99
e 97 98
e 97 99
e 97 100
